c description: Random 3-CNF over 20 variables and 85 clauses
c generator: CNFgen (0.9.2)
c copyright: (C) 2012-2022 Massimo Lauria <massimo.lauria@uniroma1.it>
c url: https://massimolauria.net/cnfgen
c command line: cnfgen --output CNF_4.28/20_bit_85_149.cnf randkcnf 3 20 85
c
p cnf 20 85
-10 11 12 0
-4 -14 18 0
13 16 -18 0
13 15 19 0
-4 12 -20 0
5 12 -18 0
4 17 -18 0
-10 13 16 0
7 14 -15 0
1 6 7 0
-4 -5 -20 0
-5 -12 -14 0
-3 -6 18 0
-5 7 9 0
-3 9 -16 0
3 -11 12 0
5 -17 18 0
4 -16 20 0
-11 15 17 0
7 17 20 0
6 -9 -12 0
1 -4 -7 0
10 -12 -14 0
4 9 17 0
-8 15 -19 0
-1 5 -16 0
-3 5 -19 0
-9 10 15 0
-1 7 11 0
-1 13 -16 0
-12 -14 16 0
2 -6 18 0
-3 -4 17 0
3 -5 7 0
-1 3 -18 0
3 15 19 0
-8 17 -20 0
12 13 -15 0
-9 16 -19 0
-1 -3 17 0
4 5 10 0
3 -7 -16 0
-8 13 -15 0
-7 8 -17 0
4 5 18 0
-3 9 17 0
8 16 19 0
6 13 17 0
2 -6 20 0
-5 8 -16 0
5 -7 -8 0
9 17 18 0
7 14 19 0
-4 -5 14 0
-6 9 -19 0
1 -7 14 0
-2 4 10 0
-4 -14 -15 0
-15 -16 -19 0
-13 18 -20 0
1 9 20 0
-5 10 11 0
5 -7 16 0
-3 -9 20 0
6 -10 -14 0
-2 -8 -20 0
8 -12 -14 0
-7 14 17 0
-1 6 11 0
-11 14 -19 0
2 4 10 0
1 -2 -8 0
6 -14 17 0
-7 -11 -20 0
-3 6 11 0
-3 -10 -15 0
4 9 16 0
-4 -12 20 0
-5 -7 -10 0
8 -11 13 0
-7 -17 -20 0
12 -14 18 0
-9 -11 -13 0
3 15 -19 0
2 10 -18 0
